
(set-logic ALL) 

(declare-datatype MyList ((Nil) (Cons (head Real) (tail MyList)) )) 
(declare-fun l0 () MyList) 
(declare-fun l1 () MyList) 
(declare-fun l2 () MyList) 
(declare-fun l3 () MyList) 
(declare-fun i0 () Real) 
(declare-fun i1 () Real) 
(assert (and (= l0 l1) (= l3 l0) (is-Cons Nil)) )
(assert (and (is-Nil Nil) (= l2 Nil) (is-Cons Nil)) )
(assert (is-Cons l0) )
(assert (not (= l1 l1)) )
(assert (is-Nil l0) )
(assert (is-Nil Nil) )
(assert (not (= l3 l2)) )
(assert (= l3 l1) )
(check-sat)
